
Gurobi 11.0.2 (win64) logging started Mon Aug 19 17:47:34 2024

Set parameter LogFile to value "D:\Documenti\Scuola\Laurea magistrale unibs\laurea-unibs-mkfsp\output\2024-08-19T13_57_45.433552\logs\instance11_bucket6.log"
Set parameter TimeLimit to value 8.9248233899999832e+01
Set parameter MIPGap to value 0
Gurobi Optimizer version 11.0.2 build v11.0.2rc0 (win64 - Windows 10.0 (19045.2))

CPU model: Intel(R) Core(TM) i5-4670 CPU @ 3.40GHz, instruction set [SSE2|AVX|AVX2]
Thread count: 4 physical cores, 4 logical processors, using up to 4 threads

Optimize a model with 5775 rows, 25624 columns and 714997 nonzeros
Model fingerprint: 0x8ea84002
Variable types: 0 continuous, 25624 integer (25327 binary)
Coefficient statistics:
  Matrix range     [1e+00, 9e+03]
  Objective range  [6e+02, 9e+03]
  Bounds range     [1e+00, 1e+00]
  RHS range        [1e+00, 1e+06]
Presolve time: 1.56s
Presolved: 5775 rows, 25624 columns, 714997 nonzeros
Variable types: 0 continuous, 25624 integer (25327 binary)
Deterministic concurrent LP optimizer: primal simplex, dual simplex, and barrier
Showing barrier log only...

Root barrier log...

Ordering time: 0.08s

Barrier statistics:
 AA' NZ     : 7.678e+05
 Factor NZ  : 8.644e+05 (roughly 17 MB of memory)
 Factor Ops : 2.863e+08 (less than 1 second per iteration)
 Threads    : 1

                  Objective                Residual
Iter       Primal          Dual         Primal    Dual     Compl     Time
   0   9.82789276e+07  1.16265421e+08  4.94e+06 0.00e+00  6.56e+05     3s
   1   1.87981222e+07  1.20530900e+08  8.22e+05 3.13e-13  1.18e+05     3s
   2   1.51212140e+06  1.10172724e+08  7.06e+03 3.98e-13  3.32e+03     3s
   3   1.36944195e+06  2.37993868e+07  5.29e+01 4.41e-13  4.92e+02     3s
   4   1.43535509e+06  3.34946880e+06  6.26e-14 8.53e-14  4.17e+01     3s
   5   1.47618250e+06  1.64334060e+06  3.69e-14 3.42e-14  3.64e+00     3s
   6   1.49571528e+06  1.51083878e+06  3.15e-13 4.17e-14  3.29e-01     3s
   7   1.49698944e+06  1.50076328e+06  2.84e-13 4.45e-14  8.22e-02     4s
   8   1.49784132e+06  1.49899886e+06  9.66e-13 3.64e-14  2.52e-02     4s
   9   1.49814377e+06  1.49854550e+06  2.09e-12 3.42e-14  8.75e-03     4s
  10   1.49826579e+06  1.49843752e+06  5.24e-12 2.68e-14  3.74e-03     4s
  11   1.49832363e+06  1.49838833e+06  5.06e-12 4.00e-14  1.41e-03     4s
  12   1.49835716e+06  1.49837047e+06  1.30e-11 3.47e-14  2.90e-04     4s
  13   1.49836649e+06  1.49836774e+06  2.23e-11 3.44e-14  2.73e-05     4s
  14   1.49836749e+06  1.49836761e+06  1.94e-12 4.08e-14  2.71e-06     4s
  15   1.49836758e+06  1.49836759e+06  1.47e-11 3.77e-14  5.67e-08     4s
  16   1.49836758e+06  1.49836759e+06  1.85e-08 3.29e-14  1.03e-09     5s

Barrier solved model in 16 iterations and 4.62 seconds (3.26 work units)
Optimal objective 1.49836758e+06


Root crossover log...

    1963 DPushes remaining with DInf 3.3386936e-01                 7s
       0 DPushes remaining with DInf 4.8734990e-02                 8s

     121 PPushes remaining with PInf 3.6173167e-05                 8s
       0 PPushes remaining with PInf 0.0000000e+00                 8s

  Push phase complete: Pinf 0.0000000e+00, Dinf 4.8734990e-02      8s


Root simplex log...

Iteration    Objective       Primal Inf.    Dual Inf.      Time
    2086    1.4983676e+06   0.000000e+00   4.873499e-02      8s
    2126    1.4983676e+06   0.000000e+00   0.000000e+00      8s
Concurrent spin time: 0.00s

Solved with barrier
    2126    1.4983676e+06   0.000000e+00   0.000000e+00      8s

Root relaxation: objective 1.498368e+06, 2126 iterations, 6.10 seconds (3.64 work units)
Total elapsed time = 31.30s (DegenMoves)
Total elapsed time = 47.67s (DegenMoves)
Total elapsed time = 62.89s (DegenMoves)
Total elapsed time = 76.15s (DegenMoves)

    Nodes    |    Current Node    |     Objective Bounds      |     Work
 Expl Unexpl |  Obj  Depth IntInf | Incumbent    BestBd   Gap | It/Node Time

     0     0 1498367.58    0 2092          - 1498367.58      -     -   89s
H    0     0                    1338479.0000 1498367.58  11.9%     -   89s

Explored 1 nodes (82813 simplex iterations) in 89.28 seconds (114.21 work units)
Thread count was 4 (of 4 available processors)

Solution count 1: 1.33848e+06 

Time limit reached
Best objective 1.338479000000e+06, best bound 1.498367584994e+06, gap 11.9455%
